411,406
321,766
515,919
732,731
738,388
761,366
704,554
681,436
694,432
792,64
364,-30
600,246
611,309
738,388
850,529
817,673
742,791
704,554
817,673
850,529
937,489
1071,406
723,140
521,325
554,279
611,309
1020,652
732,731
382,818
300,787
1071,406
